[runlim] version:		2.0.0rc12
[runlim] host:			ap-Precision-7550
[runlim] time limit:		311040000 seconds
[runlim] real time limit:	600 seconds
[runlim] space limit:		14000 MB
[runlim] argv[0]:		python3
[runlim] argv[1]:		-u
[runlim] argv[2]:		mip_no.py
[runlim] argv[3]:		graph09
[runlim] start:			Wed Mar 25 01:22:25 2026
[runlim] child:			67531
--- Building MIP model for 916 variables ---
--- Solving with CPLEX MIP ---
Version identifier: 22.1.1.0 | 2022-11-28 | 9160aff4d
CPXPARAM_Read_DataCheck                          1
CPXPARAM_MIP_Tolerances_MIPGap                   0
Legacy callback                                  i
Tried aggregator 1 time.
MIP Presolve eliminated 505770 rows and 0 columns.
MIP Presolve modified 109835 coefficients.
Reduced MIP has 129061 rows, 36140 columns, and 790048 nonzeros.
Reduced MIP has 36140 binaries, 0 generals, 0 SOSs, and 0 indicators.
Presolve time = 4.00 sec. (3033.52 ticks)
Probing changed sense of 18046 constraints.
Probing time = 0.21 sec. (42.34 ticks)
Tried aggregator 1 time.
[runlim] sample:		18.05 time, 10.01 real, 611 MB, 1.85 load
MIP Presolve eliminated 39567 rows and 18046 columns.
MIP Presolve modified 72783 coefficients.
Reduced MIP has 89494 rows, 18094 columns, and 890209 nonzeros.
Reduced MIP has 18094 binaries, 0 generals, 0 SOSs, and 0 indicators.
Presolve time = 5.06 sec. (3840.77 ticks)
Probing time = 0.03 sec. (6.75 ticks)
Tried aggregator 1 time.
Detecting symmetries...
MIP Presolve eliminated 2 rows and 0 columns.
Reduced MIP has 89492 rows, 18092 columns, and 890203 nonzeros.
Reduced MIP has 18092 binaries, 0 generals, 0 SOSs, and 0 indicators.
Presolve time = 1.65 sec. (1381.65 ticks)
Probing time = 0.03 sec. (6.74 ticks)
Clique table members: 89492.
MIP emphasis: balance optimality and feasibility.
MIP search method: dynamic search.
Parallel mode: deterministic, using up to 12 threads.
[runlim] sample:		51.45 time, 20.01 real, 809 MB, 2.04 load
[runlim] sample:		163.17 time, 30.02 real, 1017 MB, 3.50 load
[runlim] sample:		232.76 time, 40.01 real, 887 MB, 4.09 load
[runlim] sample:		267.75 time, 50.01 real, 838 MB, 4.00 load
[runlim] sample:		297.75 time, 60.01 real, 838 MB, 3.84 load
[runlim] sample:		327.74 time, 70.01 real, 838 MB, 3.71 load
Root relaxation solution time = 63.92 sec. (24252.20 ticks)

        Nodes                                         Cuts/
   Node  Left     Objective  IInf  Best Integer    Best Bound    ItCnt     Gap

*     0+    0                           32.0000        0.0000           100.00%
*     0+    0                           30.0000        0.0000           100.00%
*     0+    0                           28.0000        0.0000           100.00%
      0     0       18.0000  2241       28.0000       18.0000       13   35.71%

Num labels used: 28
Current incumbent solution: {16, 30, 58, 86, 114, 156, 240, 254, 268, 296, 324, 352, 394, 414, 442, 470, 478, 484, 512, 526, 540, 652, 680, 708, 722, 750, 764, 778}}
Time taken: 79.70s

Num labels used: 28
Current incumbent solution: {16, 30, 58, 86, 114, 156, 240, 254, 268, 296, 324, 352, 394, 414, 442, 470, 478, 484, 512, 526, 540, 652, 680, 708, 722, 750, 764, 778}}
Time taken: 79.72s
[runlim] sample:		351.47 time, 80.01 real, 817 MB, 3.44 load
[runlim] sample:		371.46 time, 90.01 real, 879 MB, 3.22 load
[runlim] sample:		391.46 time, 100.01 real, 910 MB, 3.10 load
[runlim] sample:		411.46 time, 110.01 real, 954 MB, 2.93 load
[runlim] sample:		431.46 time, 120.01 real, 965 MB, 2.79 load
[runlim] sample:		451.45 time, 130.01 real, 966 MB, 2.67 load
[runlim] sample:		471.45 time, 140.01 real, 966 MB, 2.57 load
[runlim] sample:		491.45 time, 150.01 real, 966 MB, 2.48 load
[runlim] sample:		511.44 time, 160.01 real, 979 MB, 2.40 load
[runlim] sample:		531.43 time, 170.01 real, 983 MB, 2.34 load
[runlim] sample:		551.43 time, 180.01 real, 988 MB, 2.29 load
[runlim] sample:		571.43 time, 190.01 real, 990 MB, 2.24 load
[runlim] sample:		591.42 time, 200.01 real, 990 MB, 2.21 load
[runlim] sample:		611.41 time, 210.01 real, 994 MB, 2.17 load
[runlim] sample:		631.41 time, 220.01 real, 994 MB, 2.15 load
[runlim] sample:		651.41 time, 230.01 real, 995 MB, 2.12 load
[runlim] sample:		671.40 time, 240.01 real, 996 MB, 2.10 load
[runlim] sample:		691.40 time, 250.01 real, 996 MB, 2.09 load
[runlim] sample:		711.40 time, 260.01 real, 997 MB, 2.07 load
[runlim] sample:		731.40 time, 270.01 real, 997 MB, 2.06 load
[runlim] sample:		751.40 time, 280.01 real, 997 MB, 2.05 load
[runlim] sample:		771.40 time, 290.01 real, 998 MB, 2.04 load
[runlim] sample:		791.39 time, 300.01 real, 998 MB, 2.04 load
[runlim] sample:		811.39 time, 310.01 real, 998 MB, 2.03 load
[runlim] sample:		831.39 time, 320.01 real, 998 MB, 2.02 load
[runlim] sample:		851.38 time, 330.01 real, 998 MB, 2.02 load
[runlim] sample:		871.38 time, 340.01 real, 998 MB, 2.02 load
[runlim] sample:		891.38 time, 350.01 real, 998 MB, 2.01 load
[runlim] sample:		911.37 time, 360.01 real, 999 MB, 2.01 load
[runlim] sample:		931.37 time, 370.01 real, 999 MB, 2.01 load
[runlim] sample:		951.36 time, 380.01 real, 999 MB, 2.01 load
[runlim] sample:		971.36 time, 390.01 real, 999 MB, 2.01 load
[runlim] sample:		991.35 time, 400.01 real, 999 MB, 2.00 load
[runlim] sample:		1011.35 time, 410.01 real, 999 MB, 2.16 load
[runlim] sample:		1031.35 time, 420.01 real, 999 MB, 2.21 load
[runlim] sample:		1051.34 time, 430.01 real, 999 MB, 2.17 load
[runlim] sample:		1071.34 time, 440.01 real, 999 MB, 2.15 load
[runlim] sample:		1091.33 time, 450.01 real, 1000 MB, 2.12 load
[runlim] sample:		1111.33 time, 460.01 real, 1000 MB, 2.10 load
[runlim] sample:		1131.33 time, 470.01 real, 1000 MB, 2.09 load
[runlim] sample:		1151.32 time, 480.01 real, 1000 MB, 2.07 load
[runlim] sample:		1171.32 time, 490.01 real, 1002 MB, 2.06 load
[runlim] sample:		1191.31 time, 500.01 real, 1002 MB, 2.05 load
[runlim] sample:		1211.31 time, 510.01 real, 1002 MB, 2.04 load
[runlim] sample:		1231.31 time, 520.01 real, 1002 MB, 2.04 load
[runlim] sample:		1251.30 time, 530.01 real, 1002 MB, 2.03 load
[runlim] sample:		1271.30 time, 540.01 real, 1002 MB, 2.02 load
[runlim] sample:		1291.30 time, 550.01 real, 1002 MB, 2.02 load
[runlim] sample:		1311.29 time, 560.01 real, 1002 MB, 2.02 load
[runlim] sample:		1331.29 time, 570.01 real, 1002 MB, 2.09 load
[runlim] sample:		1351.29 time, 580.01 real, 1002 MB, 2.07 load
[runlim] sample:		1371.29 time, 590.01 real, 1004 MB, 2.06 load
[runlim] sample:		1391.29 time, 600.01 real, 1004 MB, 2.05 load
[runlim] end:			Wed Mar 25 01:32:26 2026
[runlim] status:		out of time
[runlim] result:		2
[runlim] children:		1
[runlim] processes:		2
[runlim] real:			601.06 seconds
[runlim] time:			1391.29 seconds
[runlim] space:			1017 MB
[runlim] load:			4.10 maximum
[runlim] samples:		6000
